Casos de prueba/Caso2.dzn
% Generado automaticamente desde C:/Users/Daniel/OneDrive/Desktop/Universidad/Semestre 6.1/ADA2/Proyecto 2/Polarizacion/Casos de prueba/Caso2.txt

n = 20;
m = 4;
ct = 35.0;
maxMovs = 10.0;
mediana = 0.4;

v = [0.25, 0.4, 0.65, 0.85];
p = [5, 6, 4, 5];
s = [| 1, 3, 1 | 2, 2, 2 | 1, 1, 2 | 3, 1, 1 |];
