Casos de prueba/Caso2.txt
20
4
5,6,4,5
0.25,0.40,0.65,0.85
1,3,1
2,2,2
1,1,2
3,1,1
35
10
